(set-logic QF_LRA)
(declare-fun T1 () Real )
(declare-fun T2 () Real )
(declare-fun T3 () Real )
(declare-fun T4 () Real )
(declare-fun T5 () Real )
(declare-fun T6 () Real )
(declare-fun T7 () Real )
(declare-fun T8 () Real )
(declare-fun Z () Real )
(declare-fun k () Real )
(assert (let
(( $goal (>= Z k) ))
(let
((
$phi ( and 
(or ( <= ( + T1 76 ) T2 ) ( <= ( + T2 3 ) T1 ) )
(or ( <= ( + T1 143 )  ( + T2 3 ) ) ( <= ( + T2 48 )( + T1 76 ) ) )
(or ( <= ( + T1 195 )  ( + T2 48 ) ) ( <= ( + T2 113 )( + T1 143 ) ) )
(or ( <= ( + T1 219 )  ( + T2 113 ) ) ( <= ( + T2 161 )( + T1 195 ) ) )
(or ( <= ( + T1 318 )  ( + T2 161 ) ) ( <= ( + T2 230 )( + T1 219 ) ) )
(or ( <= ( + T1 418 )  ( + T2 230 ) ) ( <= ( + T2 315 )( + T1 318 ) ) )
(or ( <= ( + T1 518 )  ( + T2 315 ) ) ( <= ( + T2 345 )( + T1 418 ) ) )
(or ( <= ( + T1 574 )  ( + T2 345 ) ) ( <= ( + T2 412 )( + T1 518 ) ) )
(or ( <= ( + T1 671 )  ( + T2 412 ) ) ( <= ( + T2 441 )( + T1 574 ) ) )
(or ( <= ( + T1 766 )  ( + T2 441 ) ) ( <= ( + T2 466 )( + T1 671 ) ) )
(or ( <= ( + T1 76 ) T3 ) ( <= ( + T3 54 ) T1 ) )
(or ( <= ( + T1 143 )  ( + T3 54 ) ) ( <= ( + T3 70 )( + T1 76 ) ) )
(or ( <= ( + T1 195 )  ( + T3 70 ) ) ( <= ( + T3 96 )( + T1 143 ) ) )
(or ( <= ( + T1 219 )  ( + T3 96 ) ) ( <= ( + T3 140 )( + T1 195 ) ) )
(or ( <= ( + T1 318 )  ( + T3 140 ) ) ( <= ( + T3 230 )( + T1 219 ) ) )
(or ( <= ( + T1 418 )  ( + T3 230 ) ) ( <= ( + T3 286 )( + T1 318 ) ) )
(or ( <= ( + T1 518 )  ( + T3 286 ) ) ( <= ( + T3 345 )( + T1 418 ) ) )
(or ( <= ( + T1 574 )  ( + T3 345 ) ) ( <= ( + T3 354 )( + T1 518 ) ) )
(or ( <= ( + T1 671 )  ( + T3 354 ) ) ( <= ( + T3 381 )( + T1 574 ) ) )
(or ( <= ( + T1 766 )  ( + T3 381 ) ) ( <= ( + T3 416 )( + T1 671 ) ) )
(or ( <= ( + T1 76 ) T4 ) ( <= ( + T4 29 ) T1 ) )
(or ( <= ( + T1 143 )  ( + T4 29 ) ) ( <= ( + T4 31 )( + T1 76 ) ) )
(or ( <= ( + T1 195 )  ( + T4 31 ) ) ( <= ( + T4 84 )( + T1 143 ) ) )
(or ( <= ( + T1 219 )  ( + T4 84 ) ) ( <= ( + T4 164 )( + T1 195 ) ) )
(or ( <= ( + T1 318 )  ( + T4 164 ) ) ( <= ( + T4 190 )( + T1 219 ) ) )
(or ( <= ( + T1 418 )  ( + T4 190 ) ) ( <= ( + T4 241 )( + T1 318 ) ) )
(or ( <= ( + T1 518 )  ( + T4 241 ) ) ( <= ( + T4 320 )( + T1 418 ) ) )
(or ( <= ( + T1 574 )  ( + T4 320 ) ) ( <= ( + T4 397 )( + T1 518 ) ) )
(or ( <= ( + T1 671 )  ( + T4 397 ) ) ( <= ( + T4 403 )( + T1 574 ) ) )
(or ( <= ( + T1 766 )  ( + T4 403 ) ) ( <= ( + T4 431 )( + T1 671 ) ) )
(or ( <= ( + T1 76 ) T5 ) ( <= ( + T5 23 ) T1 ) )
(or ( <= ( + T1 143 )  ( + T5 23 ) ) ( <= ( + T5 83 )( + T1 76 ) ) )
(or ( <= ( + T1 195 )  ( + T5 83 ) ) ( <= ( + T5 155 )( + T1 143 ) ) )
(or ( <= ( + T1 219 )  ( + T5 155 ) ) ( <= ( + T5 242 )( + T1 195 ) ) )
(or ( <= ( + T1 318 )  ( + T5 242 ) ) ( <= ( + T5 250 )( + T1 219 ) ) )
(or ( <= ( + T1 418 )  ( + T5 250 ) ) ( <= ( + T5 290 )( + T1 318 ) ) )
(or ( <= ( + T1 518 )  ( + T5 290 ) ) ( <= ( + T5 361 )( + T1 418 ) ) )
(or ( <= ( + T1 574 )  ( + T5 361 ) ) ( <= ( + T5 398 )( + T1 518 ) ) )
(or ( <= ( + T1 671 )  ( + T5 398 ) ) ( <= ( + T5 457 )( + T1 574 ) ) )
(or ( <= ( + T1 766 )  ( + T5 457 ) ) ( <= ( + T5 557 )( + T1 671 ) ) )
(or ( <= ( + T1 76 ) T6 ) ( <= ( + T6 14 ) T1 ) )
(or ( <= ( + T1 143 )  ( + T6 14 ) ) ( <= ( + T6 26 )( + T1 76 ) ) )
(or ( <= ( + T1 195 )  ( + T6 26 ) ) ( <= ( + T6 93 )( + T1 143 ) ) )
(or ( <= ( + T1 219 )  ( + T6 93 ) ) ( <= ( + T6 132 )( + T1 195 ) ) )
(or ( <= ( + T1 318 )  ( + T6 132 ) ) ( <= ( + T6 139 )( + T1 219 ) ) )
(or ( <= ( + T1 418 )  ( + T6 139 ) ) ( <= ( + T6 196 )( + T1 318 ) ) )
(or ( <= ( + T1 518 )  ( + T6 196 ) ) ( <= ( + T6 242 )( + T1 418 ) ) )
(or ( <= ( + T1 574 )  ( + T6 242 ) ) ( <= ( + T6 260 )( + T1 518 ) ) )
(or ( <= ( + T1 671 )  ( + T6 260 ) ) ( <= ( + T6 277 )( + T1 574 ) ) )
(or ( <= ( + T1 766 )  ( + T6 277 ) ) ( <= ( + T6 349 )( + T1 671 ) ) )
(or ( <= ( + T1 76 ) T7 ) ( <= ( + T7 52 ) T1 ) )
(or ( <= ( + T1 143 )  ( + T7 52 ) ) ( <= ( + T7 97 )( + T1 76 ) ) )
(or ( <= ( + T1 195 )  ( + T7 97 ) ) ( <= ( + T7 171 )( + T1 143 ) ) )
(or ( <= ( + T1 219 )  ( + T7 171 ) ) ( <= ( + T7 175 )( + T1 195 ) ) )
(or ( <= ( + T1 318 )  ( + T7 175 ) ) ( <= ( + T7 199 )( + T1 219 ) ) )
(or ( <= ( + T1 418 )  ( + T7 199 ) ) ( <= ( + T7 250 )( + T1 318 ) ) )
(or ( <= ( + T1 518 )  ( + T7 250 ) ) ( <= ( + T7 256 )( + T1 418 ) ) )
(or ( <= ( + T1 574 )  ( + T7 256 ) ) ( <= ( + T7 311 )( + T1 518 ) ) )
(or ( <= ( + T1 671 )  ( + T7 311 ) ) ( <= ( + T7 338 )( + T1 574 ) ) )
(or ( <= ( + T1 766 )  ( + T7 338 ) ) ( <= ( + T7 402 )( + T1 671 ) ) )
(or ( <= ( + T1 76 ) T8 ) ( <= ( + T8 82 ) T1 ) )
(or ( <= ( + T1 143 )  ( + T8 82 ) ) ( <= ( + T8 131 )( + T1 76 ) ) )
(or ( <= ( + T1 195 )  ( + T8 131 ) ) ( <= ( + T8 154 )( + T1 143 ) ) )
(or ( <= ( + T1 219 )  ( + T8 154 ) ) ( <= ( + T8 159 )( + T1 195 ) ) )
(or ( <= ( + T1 318 )  ( + T8 159 ) ) ( <= ( + T8 247 )( + T1 219 ) ) )
(or ( <= ( + T1 418 )  ( + T8 247 ) ) ( <= ( + T8 277 )( + T1 318 ) ) )
(or ( <= ( + T1 518 )  ( + T8 277 ) ) ( <= ( + T8 373 )( + T1 418 ) ) )
(or ( <= ( + T1 574 )  ( + T8 373 ) ) ( <= ( + T8 431 )( + T1 518 ) ) )
(or ( <= ( + T1 671 )  ( + T8 431 ) ) ( <= ( + T8 498 )( + T1 574 ) ) )
(or ( <= ( + T1 766 )  ( + T8 498 ) ) ( <= ( + T8 552 )( + T1 671 ) ) )
(or ( <= ( + T2 3 ) T3 ) ( <= ( + T3 54 ) T2 ) )
(or ( <= ( + T2 48 )  ( + T3 54 ) ) ( <= ( + T3 70 )( + T2 3 ) ) )
(or ( <= ( + T2 113 )  ( + T3 70 ) ) ( <= ( + T3 96 )( + T2 48 ) ) )
(or ( <= ( + T2 161 )  ( + T3 96 ) ) ( <= ( + T3 140 )( + T2 113 ) ) )
(or ( <= ( + T2 230 )  ( + T3 140 ) ) ( <= ( + T3 230 )( + T2 161 ) ) )
(or ( <= ( + T2 315 )  ( + T3 230 ) ) ( <= ( + T3 286 )( + T2 230 ) ) )
(or ( <= ( + T2 345 )  ( + T3 286 ) ) ( <= ( + T3 345 )( + T2 315 ) ) )
(or ( <= ( + T2 412 )  ( + T3 345 ) ) ( <= ( + T3 354 )( + T2 345 ) ) )
(or ( <= ( + T2 441 )  ( + T3 354 ) ) ( <= ( + T3 381 )( + T2 412 ) ) )
(or ( <= ( + T2 466 )  ( + T3 381 ) ) ( <= ( + T3 416 )( + T2 441 ) ) )
(or ( <= ( + T2 3 ) T4 ) ( <= ( + T4 29 ) T2 ) )
(or ( <= ( + T2 48 )  ( + T4 29 ) ) ( <= ( + T4 31 )( + T2 3 ) ) )
(or ( <= ( + T2 113 )  ( + T4 31 ) ) ( <= ( + T4 84 )( + T2 48 ) ) )
(or ( <= ( + T2 161 )  ( + T4 84 ) ) ( <= ( + T4 164 )( + T2 113 ) ) )
(or ( <= ( + T2 230 )  ( + T4 164 ) ) ( <= ( + T4 190 )( + T2 161 ) ) )
(or ( <= ( + T2 315 )  ( + T4 190 ) ) ( <= ( + T4 241 )( + T2 230 ) ) )
(or ( <= ( + T2 345 )  ( + T4 241 ) ) ( <= ( + T4 320 )( + T2 315 ) ) )
(or ( <= ( + T2 412 )  ( + T4 320 ) ) ( <= ( + T4 397 )( + T2 345 ) ) )
(or ( <= ( + T2 441 )  ( + T4 397 ) ) ( <= ( + T4 403 )( + T2 412 ) ) )
(or ( <= ( + T2 466 )  ( + T4 403 ) ) ( <= ( + T4 431 )( + T2 441 ) ) )
(or ( <= ( + T2 3 ) T5 ) ( <= ( + T5 23 ) T2 ) )
(or ( <= ( + T2 48 )  ( + T5 23 ) ) ( <= ( + T5 83 )( + T2 3 ) ) )
(or ( <= ( + T2 113 )  ( + T5 83 ) ) ( <= ( + T5 155 )( + T2 48 ) ) )
(or ( <= ( + T2 161 )  ( + T5 155 ) ) ( <= ( + T5 242 )( + T2 113 ) ) )
(or ( <= ( + T2 230 )  ( + T5 242 ) ) ( <= ( + T5 250 )( + T2 161 ) ) )
(or ( <= ( + T2 315 )  ( + T5 250 ) ) ( <= ( + T5 290 )( + T2 230 ) ) )
(or ( <= ( + T2 345 )  ( + T5 290 ) ) ( <= ( + T5 361 )( + T2 315 ) ) )
(or ( <= ( + T2 412 )  ( + T5 361 ) ) ( <= ( + T5 398 )( + T2 345 ) ) )
(or ( <= ( + T2 441 )  ( + T5 398 ) ) ( <= ( + T5 457 )( + T2 412 ) ) )
(or ( <= ( + T2 466 )  ( + T5 457 ) ) ( <= ( + T5 557 )( + T2 441 ) ) )
(or ( <= ( + T2 3 ) T6 ) ( <= ( + T6 14 ) T2 ) )
(or ( <= ( + T2 48 )  ( + T6 14 ) ) ( <= ( + T6 26 )( + T2 3 ) ) )
(or ( <= ( + T2 113 )  ( + T6 26 ) ) ( <= ( + T6 93 )( + T2 48 ) ) )
(or ( <= ( + T2 161 )  ( + T6 93 ) ) ( <= ( + T6 132 )( + T2 113 ) ) )
(or ( <= ( + T2 230 )  ( + T6 132 ) ) ( <= ( + T6 139 )( + T2 161 ) ) )
(or ( <= ( + T2 315 )  ( + T6 139 ) ) ( <= ( + T6 196 )( + T2 230 ) ) )
(or ( <= ( + T2 345 )  ( + T6 196 ) ) ( <= ( + T6 242 )( + T2 315 ) ) )
(or ( <= ( + T2 412 )  ( + T6 242 ) ) ( <= ( + T6 260 )( + T2 345 ) ) )
(or ( <= ( + T2 441 )  ( + T6 260 ) ) ( <= ( + T6 277 )( + T2 412 ) ) )
(or ( <= ( + T2 466 )  ( + T6 277 ) ) ( <= ( + T6 349 )( + T2 441 ) ) )
(or ( <= ( + T2 3 ) T7 ) ( <= ( + T7 52 ) T2 ) )
(or ( <= ( + T2 48 )  ( + T7 52 ) ) ( <= ( + T7 97 )( + T2 3 ) ) )
(or ( <= ( + T2 113 )  ( + T7 97 ) ) ( <= ( + T7 171 )( + T2 48 ) ) )
(or ( <= ( + T2 161 )  ( + T7 171 ) ) ( <= ( + T7 175 )( + T2 113 ) ) )
(or ( <= ( + T2 230 )  ( + T7 175 ) ) ( <= ( + T7 199 )( + T2 161 ) ) )
(or ( <= ( + T2 315 )  ( + T7 199 ) ) ( <= ( + T7 250 )( + T2 230 ) ) )
(or ( <= ( + T2 345 )  ( + T7 250 ) ) ( <= ( + T7 256 )( + T2 315 ) ) )
(or ( <= ( + T2 412 )  ( + T7 256 ) ) ( <= ( + T7 311 )( + T2 345 ) ) )
(or ( <= ( + T2 441 )  ( + T7 311 ) ) ( <= ( + T7 338 )( + T2 412 ) ) )
(or ( <= ( + T2 466 )  ( + T7 338 ) ) ( <= ( + T7 402 )( + T2 441 ) ) )
(or ( <= ( + T2 3 ) T8 ) ( <= ( + T8 82 ) T2 ) )
(or ( <= ( + T2 48 )  ( + T8 82 ) ) ( <= ( + T8 131 )( + T2 3 ) ) )
(or ( <= ( + T2 113 )  ( + T8 131 ) ) ( <= ( + T8 154 )( + T2 48 ) ) )
(or ( <= ( + T2 161 )  ( + T8 154 ) ) ( <= ( + T8 159 )( + T2 113 ) ) )
(or ( <= ( + T2 230 )  ( + T8 159 ) ) ( <= ( + T8 247 )( + T2 161 ) ) )
(or ( <= ( + T2 315 )  ( + T8 247 ) ) ( <= ( + T8 277 )( + T2 230 ) ) )
(or ( <= ( + T2 345 )  ( + T8 277 ) ) ( <= ( + T8 373 )( + T2 315 ) ) )
(or ( <= ( + T2 412 )  ( + T8 373 ) ) ( <= ( + T8 431 )( + T2 345 ) ) )
(or ( <= ( + T2 441 )  ( + T8 431 ) ) ( <= ( + T8 498 )( + T2 412 ) ) )
(or ( <= ( + T2 466 )  ( + T8 498 ) ) ( <= ( + T8 552 )( + T2 441 ) ) )
(or ( <= ( + T3 54 ) T4 ) ( <= ( + T4 29 ) T3 ) )
(or ( <= ( + T3 70 )  ( + T4 29 ) ) ( <= ( + T4 31 )( + T3 54 ) ) )
(or ( <= ( + T3 96 )  ( + T4 31 ) ) ( <= ( + T4 84 )( + T3 70 ) ) )
(or ( <= ( + T3 140 )  ( + T4 84 ) ) ( <= ( + T4 164 )( + T3 96 ) ) )
(or ( <= ( + T3 230 )  ( + T4 164 ) ) ( <= ( + T4 190 )( + T3 140 ) ) )
(or ( <= ( + T3 286 )  ( + T4 190 ) ) ( <= ( + T4 241 )( + T3 230 ) ) )
(or ( <= ( + T3 345 )  ( + T4 241 ) ) ( <= ( + T4 320 )( + T3 286 ) ) )
(or ( <= ( + T3 354 )  ( + T4 320 ) ) ( <= ( + T4 397 )( + T3 345 ) ) )
(or ( <= ( + T3 381 )  ( + T4 397 ) ) ( <= ( + T4 403 )( + T3 354 ) ) )
(or ( <= ( + T3 416 )  ( + T4 403 ) ) ( <= ( + T4 431 )( + T3 381 ) ) )
(or ( <= ( + T3 54 ) T5 ) ( <= ( + T5 23 ) T3 ) )
(or ( <= ( + T3 70 )  ( + T5 23 ) ) ( <= ( + T5 83 )( + T3 54 ) ) )
(or ( <= ( + T3 96 )  ( + T5 83 ) ) ( <= ( + T5 155 )( + T3 70 ) ) )
(or ( <= ( + T3 140 )  ( + T5 155 ) ) ( <= ( + T5 242 )( + T3 96 ) ) )
(or ( <= ( + T3 230 )  ( + T5 242 ) ) ( <= ( + T5 250 )( + T3 140 ) ) )
(or ( <= ( + T3 286 )  ( + T5 250 ) ) ( <= ( + T5 290 )( + T3 230 ) ) )
(or ( <= ( + T3 345 )  ( + T5 290 ) ) ( <= ( + T5 361 )( + T3 286 ) ) )
(or ( <= ( + T3 354 )  ( + T5 361 ) ) ( <= ( + T5 398 )( + T3 345 ) ) )
(or ( <= ( + T3 381 )  ( + T5 398 ) ) ( <= ( + T5 457 )( + T3 354 ) ) )
(or ( <= ( + T3 416 )  ( + T5 457 ) ) ( <= ( + T5 557 )( + T3 381 ) ) )
(or ( <= ( + T3 54 ) T6 ) ( <= ( + T6 14 ) T3 ) )
(or ( <= ( + T3 70 )  ( + T6 14 ) ) ( <= ( + T6 26 )( + T3 54 ) ) )
(or ( <= ( + T3 96 )  ( + T6 26 ) ) ( <= ( + T6 93 )( + T3 70 ) ) )
(or ( <= ( + T3 140 )  ( + T6 93 ) ) ( <= ( + T6 132 )( + T3 96 ) ) )
(or ( <= ( + T3 230 )  ( + T6 132 ) ) ( <= ( + T6 139 )( + T3 140 ) ) )
(or ( <= ( + T3 286 )  ( + T6 139 ) ) ( <= ( + T6 196 )( + T3 230 ) ) )
(or ( <= ( + T3 345 )  ( + T6 196 ) ) ( <= ( + T6 242 )( + T3 286 ) ) )
(or ( <= ( + T3 354 )  ( + T6 242 ) ) ( <= ( + T6 260 )( + T3 345 ) ) )
(or ( <= ( + T3 381 )  ( + T6 260 ) ) ( <= ( + T6 277 )( + T3 354 ) ) )
(or ( <= ( + T3 416 )  ( + T6 277 ) ) ( <= ( + T6 349 )( + T3 381 ) ) )
(or ( <= ( + T3 54 ) T7 ) ( <= ( + T7 52 ) T3 ) )
(or ( <= ( + T3 70 )  ( + T7 52 ) ) ( <= ( + T7 97 )( + T3 54 ) ) )
(or ( <= ( + T3 96 )  ( + T7 97 ) ) ( <= ( + T7 171 )( + T3 70 ) ) )
(or ( <= ( + T3 140 )  ( + T7 171 ) ) ( <= ( + T7 175 )( + T3 96 ) ) )
(or ( <= ( + T3 230 )  ( + T7 175 ) ) ( <= ( + T7 199 )( + T3 140 ) ) )
(or ( <= ( + T3 286 )  ( + T7 199 ) ) ( <= ( + T7 250 )( + T3 230 ) ) )
(or ( <= ( + T3 345 )  ( + T7 250 ) ) ( <= ( + T7 256 )( + T3 286 ) ) )
(or ( <= ( + T3 354 )  ( + T7 256 ) ) ( <= ( + T7 311 )( + T3 345 ) ) )
(or ( <= ( + T3 381 )  ( + T7 311 ) ) ( <= ( + T7 338 )( + T3 354 ) ) )
(or ( <= ( + T3 416 )  ( + T7 338 ) ) ( <= ( + T7 402 )( + T3 381 ) ) )
(or ( <= ( + T3 54 ) T8 ) ( <= ( + T8 82 ) T3 ) )
(or ( <= ( + T3 70 )  ( + T8 82 ) ) ( <= ( + T8 131 )( + T3 54 ) ) )
(or ( <= ( + T3 96 )  ( + T8 131 ) ) ( <= ( + T8 154 )( + T3 70 ) ) )
(or ( <= ( + T3 140 )  ( + T8 154 ) ) ( <= ( + T8 159 )( + T3 96 ) ) )
(or ( <= ( + T3 230 )  ( + T8 159 ) ) ( <= ( + T8 247 )( + T3 140 ) ) )
(or ( <= ( + T3 286 )  ( + T8 247 ) ) ( <= ( + T8 277 )( + T3 230 ) ) )
(or ( <= ( + T3 345 )  ( + T8 277 ) ) ( <= ( + T8 373 )( + T3 286 ) ) )
(or ( <= ( + T3 354 )  ( + T8 373 ) ) ( <= ( + T8 431 )( + T3 345 ) ) )
(or ( <= ( + T3 381 )  ( + T8 431 ) ) ( <= ( + T8 498 )( + T3 354 ) ) )
(or ( <= ( + T3 416 )  ( + T8 498 ) ) ( <= ( + T8 552 )( + T3 381 ) ) )
(or ( <= ( + T4 29 ) T5 ) ( <= ( + T5 23 ) T4 ) )
(or ( <= ( + T4 31 )  ( + T5 23 ) ) ( <= ( + T5 83 )( + T4 29 ) ) )
(or ( <= ( + T4 84 )  ( + T5 83 ) ) ( <= ( + T5 155 )( + T4 31 ) ) )
(or ( <= ( + T4 164 )  ( + T5 155 ) ) ( <= ( + T5 242 )( + T4 84 ) ) )
(or ( <= ( + T4 190 )  ( + T5 242 ) ) ( <= ( + T5 250 )( + T4 164 ) ) )
(or ( <= ( + T4 241 )  ( + T5 250 ) ) ( <= ( + T5 290 )( + T4 190 ) ) )
(or ( <= ( + T4 320 )  ( + T5 290 ) ) ( <= ( + T5 361 )( + T4 241 ) ) )
(or ( <= ( + T4 397 )  ( + T5 361 ) ) ( <= ( + T5 398 )( + T4 320 ) ) )
(or ( <= ( + T4 403 )  ( + T5 398 ) ) ( <= ( + T5 457 )( + T4 397 ) ) )
(or ( <= ( + T4 431 )  ( + T5 457 ) ) ( <= ( + T5 557 )( + T4 403 ) ) )
(or ( <= ( + T4 29 ) T6 ) ( <= ( + T6 14 ) T4 ) )
(or ( <= ( + T4 31 )  ( + T6 14 ) ) ( <= ( + T6 26 )( + T4 29 ) ) )
(or ( <= ( + T4 84 )  ( + T6 26 ) ) ( <= ( + T6 93 )( + T4 31 ) ) )
(or ( <= ( + T4 164 )  ( + T6 93 ) ) ( <= ( + T6 132 )( + T4 84 ) ) )
(or ( <= ( + T4 190 )  ( + T6 132 ) ) ( <= ( + T6 139 )( + T4 164 ) ) )
(or ( <= ( + T4 241 )  ( + T6 139 ) ) ( <= ( + T6 196 )( + T4 190 ) ) )
(or ( <= ( + T4 320 )  ( + T6 196 ) ) ( <= ( + T6 242 )( + T4 241 ) ) )
(or ( <= ( + T4 397 )  ( + T6 242 ) ) ( <= ( + T6 260 )( + T4 320 ) ) )
(or ( <= ( + T4 403 )  ( + T6 260 ) ) ( <= ( + T6 277 )( + T4 397 ) ) )
(or ( <= ( + T4 431 )  ( + T6 277 ) ) ( <= ( + T6 349 )( + T4 403 ) ) )
(or ( <= ( + T4 29 ) T7 ) ( <= ( + T7 52 ) T4 ) )
(or ( <= ( + T4 31 )  ( + T7 52 ) ) ( <= ( + T7 97 )( + T4 29 ) ) )
(or ( <= ( + T4 84 )  ( + T7 97 ) ) ( <= ( + T7 171 )( + T4 31 ) ) )
(or ( <= ( + T4 164 )  ( + T7 171 ) ) ( <= ( + T7 175 )( + T4 84 ) ) )
(or ( <= ( + T4 190 )  ( + T7 175 ) ) ( <= ( + T7 199 )( + T4 164 ) ) )
(or ( <= ( + T4 241 )  ( + T7 199 ) ) ( <= ( + T7 250 )( + T4 190 ) ) )
(or ( <= ( + T4 320 )  ( + T7 250 ) ) ( <= ( + T7 256 )( + T4 241 ) ) )
(or ( <= ( + T4 397 )  ( + T7 256 ) ) ( <= ( + T7 311 )( + T4 320 ) ) )
(or ( <= ( + T4 403 )  ( + T7 311 ) ) ( <= ( + T7 338 )( + T4 397 ) ) )
(or ( <= ( + T4 431 )  ( + T7 338 ) ) ( <= ( + T7 402 )( + T4 403 ) ) )
(or ( <= ( + T4 29 ) T8 ) ( <= ( + T8 82 ) T4 ) )
(or ( <= ( + T4 31 )  ( + T8 82 ) ) ( <= ( + T8 131 )( + T4 29 ) ) )
(or ( <= ( + T4 84 )  ( + T8 131 ) ) ( <= ( + T8 154 )( + T4 31 ) ) )
(or ( <= ( + T4 164 )  ( + T8 154 ) ) ( <= ( + T8 159 )( + T4 84 ) ) )
(or ( <= ( + T4 190 )  ( + T8 159 ) ) ( <= ( + T8 247 )( + T4 164 ) ) )
(or ( <= ( + T4 241 )  ( + T8 247 ) ) ( <= ( + T8 277 )( + T4 190 ) ) )
(or ( <= ( + T4 320 )  ( + T8 277 ) ) ( <= ( + T8 373 )( + T4 241 ) ) )
(or ( <= ( + T4 397 )  ( + T8 373 ) ) ( <= ( + T8 431 )( + T4 320 ) ) )
(or ( <= ( + T4 403 )  ( + T8 431 ) ) ( <= ( + T8 498 )( + T4 397 ) ) )
(or ( <= ( + T4 431 )  ( + T8 498 ) ) ( <= ( + T8 552 )( + T4 403 ) ) )
(or ( <= ( + T5 23 ) T6 ) ( <= ( + T6 14 ) T5 ) )
(or ( <= ( + T5 83 )  ( + T6 14 ) ) ( <= ( + T6 26 )( + T5 23 ) ) )
(or ( <= ( + T5 155 )  ( + T6 26 ) ) ( <= ( + T6 93 )( + T5 83 ) ) )
(or ( <= ( + T5 242 )  ( + T6 93 ) ) ( <= ( + T6 132 )( + T5 155 ) ) )
(or ( <= ( + T5 250 )  ( + T6 132 ) ) ( <= ( + T6 139 )( + T5 242 ) ) )
(or ( <= ( + T5 290 )  ( + T6 139 ) ) ( <= ( + T6 196 )( + T5 250 ) ) )
(or ( <= ( + T5 361 )  ( + T6 196 ) ) ( <= ( + T6 242 )( + T5 290 ) ) )
(or ( <= ( + T5 398 )  ( + T6 242 ) ) ( <= ( + T6 260 )( + T5 361 ) ) )
(or ( <= ( + T5 457 )  ( + T6 260 ) ) ( <= ( + T6 277 )( + T5 398 ) ) )
(or ( <= ( + T5 557 )  ( + T6 277 ) ) ( <= ( + T6 349 )( + T5 457 ) ) )
(or ( <= ( + T5 23 ) T7 ) ( <= ( + T7 52 ) T5 ) )
(or ( <= ( + T5 83 )  ( + T7 52 ) ) ( <= ( + T7 97 )( + T5 23 ) ) )
(or ( <= ( + T5 155 )  ( + T7 97 ) ) ( <= ( + T7 171 )( + T5 83 ) ) )
(or ( <= ( + T5 242 )  ( + T7 171 ) ) ( <= ( + T7 175 )( + T5 155 ) ) )
(or ( <= ( + T5 250 )  ( + T7 175 ) ) ( <= ( + T7 199 )( + T5 242 ) ) )
(or ( <= ( + T5 290 )  ( + T7 199 ) ) ( <= ( + T7 250 )( + T5 250 ) ) )
(or ( <= ( + T5 361 )  ( + T7 250 ) ) ( <= ( + T7 256 )( + T5 290 ) ) )
(or ( <= ( + T5 398 )  ( + T7 256 ) ) ( <= ( + T7 311 )( + T5 361 ) ) )
(or ( <= ( + T5 457 )  ( + T7 311 ) ) ( <= ( + T7 338 )( + T5 398 ) ) )
(or ( <= ( + T5 557 )  ( + T7 338 ) ) ( <= ( + T7 402 )( + T5 457 ) ) )
(or ( <= ( + T5 23 ) T8 ) ( <= ( + T8 82 ) T5 ) )
(or ( <= ( + T5 83 )  ( + T8 82 ) ) ( <= ( + T8 131 )( + T5 23 ) ) )
(or ( <= ( + T5 155 )  ( + T8 131 ) ) ( <= ( + T8 154 )( + T5 83 ) ) )
(or ( <= ( + T5 242 )  ( + T8 154 ) ) ( <= ( + T8 159 )( + T5 155 ) ) )
(or ( <= ( + T5 250 )  ( + T8 159 ) ) ( <= ( + T8 247 )( + T5 242 ) ) )
(or ( <= ( + T5 290 )  ( + T8 247 ) ) ( <= ( + T8 277 )( + T5 250 ) ) )
(or ( <= ( + T5 361 )  ( + T8 277 ) ) ( <= ( + T8 373 )( + T5 290 ) ) )
(or ( <= ( + T5 398 )  ( + T8 373 ) ) ( <= ( + T8 431 )( + T5 361 ) ) )
(or ( <= ( + T5 457 )  ( + T8 431 ) ) ( <= ( + T8 498 )( + T5 398 ) ) )
(or ( <= ( + T5 557 )  ( + T8 498 ) ) ( <= ( + T8 552 )( + T5 457 ) ) )
(or ( <= ( + T6 14 ) T7 ) ( <= ( + T7 52 ) T6 ) )
(or ( <= ( + T6 26 )  ( + T7 52 ) ) ( <= ( + T7 97 )( + T6 14 ) ) )
(or ( <= ( + T6 93 )  ( + T7 97 ) ) ( <= ( + T7 171 )( + T6 26 ) ) )
(or ( <= ( + T6 132 )  ( + T7 171 ) ) ( <= ( + T7 175 )( + T6 93 ) ) )
(or ( <= ( + T6 139 )  ( + T7 175 ) ) ( <= ( + T7 199 )( + T6 132 ) ) )
(or ( <= ( + T6 196 )  ( + T7 199 ) ) ( <= ( + T7 250 )( + T6 139 ) ) )
(or ( <= ( + T6 242 )  ( + T7 250 ) ) ( <= ( + T7 256 )( + T6 196 ) ) )
(or ( <= ( + T6 260 )  ( + T7 256 ) ) ( <= ( + T7 311 )( + T6 242 ) ) )
(or ( <= ( + T6 277 )  ( + T7 311 ) ) ( <= ( + T7 338 )( + T6 260 ) ) )
(or ( <= ( + T6 349 )  ( + T7 338 ) ) ( <= ( + T7 402 )( + T6 277 ) ) )
(or ( <= ( + T6 14 ) T8 ) ( <= ( + T8 82 ) T6 ) )
(or ( <= ( + T6 26 )  ( + T8 82 ) ) ( <= ( + T8 131 )( + T6 14 ) ) )
(or ( <= ( + T6 93 )  ( + T8 131 ) ) ( <= ( + T8 154 )( + T6 26 ) ) )
(or ( <= ( + T6 132 )  ( + T8 154 ) ) ( <= ( + T8 159 )( + T6 93 ) ) )
(or ( <= ( + T6 139 )  ( + T8 159 ) ) ( <= ( + T8 247 )( + T6 132 ) ) )
(or ( <= ( + T6 196 )  ( + T8 247 ) ) ( <= ( + T8 277 )( + T6 139 ) ) )
(or ( <= ( + T6 242 )  ( + T8 277 ) ) ( <= ( + T8 373 )( + T6 196 ) ) )
(or ( <= ( + T6 260 )  ( + T8 373 ) ) ( <= ( + T8 431 )( + T6 242 ) ) )
(or ( <= ( + T6 277 )  ( + T8 431 ) ) ( <= ( + T8 498 )( + T6 260 ) ) )
(or ( <= ( + T6 349 )  ( + T8 498 ) ) ( <= ( + T8 552 )( + T6 277 ) ) )
(or ( <= ( + T7 52 ) T8 ) ( <= ( + T8 82 ) T7 ) )
(or ( <= ( + T7 97 )  ( + T8 82 ) ) ( <= ( + T8 131 )( + T7 52 ) ) )
(or ( <= ( + T7 171 )  ( + T8 131 ) ) ( <= ( + T8 154 )( + T7 97 ) ) )
(or ( <= ( + T7 175 )  ( + T8 154 ) ) ( <= ( + T8 159 )( + T7 171 ) ) )
(or ( <= ( + T7 199 )  ( + T8 159 ) ) ( <= ( + T8 247 )( + T7 175 ) ) )
(or ( <= ( + T7 250 )  ( + T8 247 ) ) ( <= ( + T8 277 )( + T7 199 ) ) )
(or ( <= ( + T7 256 )  ( + T8 277 ) ) ( <= ( + T8 373 )( + T7 250 ) ) )
(or ( <= ( + T7 311 )  ( + T8 373 ) ) ( <= ( + T8 431 )( + T7 256 ) ) )
(or ( <= ( + T7 338 )  ( + T8 431 ) ) ( <= ( + T8 498 )( + T7 311 ) ) )
(or ( <= ( + T7 402 )  ( + T8 498 ) ) ( <= ( + T8 552 )( + T7 338 ) ) )
( <= ( + T1 766 ) Z)
( <= ( + T2 466 ) Z)
( <= ( + T3 416 ) Z)
( <= ( + T4 431 ) Z)
( <= ( + T5 557 ) Z)
( <= ( + T6 349 ) Z)
( <= ( + T7 402 ) Z)
( <= ( + T8 552 ) Z)
( >= T1 0 )
( >= T2 0 )
( >= T3 0 )
( >= T4 0 )
( >= T5 0 )
( >= T6 0 )
( >= T7 0 )
( >= T8 0 )
) )
)(=> $phi $goal))))